%mem=1600mb
%NProcShared=4
%chk=benzene.chk
# opt freq B3LYP/6-311+G(2d,p) scf=xqc out=wfn

Title Card Required

0 1
 C                  0.06128400   -1.39747700    0.00000000
 C                  1.24092400   -0.64560600   -0.00000800
 C                  1.17961500    0.75181000    0.00000600
 C                 -0.06135300    1.39747800   -0.00000100
 C                 -1.24089500    0.64566600   -0.00000500
 C                 -1.17957500   -0.75186800    0.00000700
 H                  0.10906600   -2.48455800   -0.00000700
 H                  2.20617600   -1.14792500    0.00000100
 H                  2.09716200    1.33673500    0.00001100
 H                 -0.10895500    2.48456800    0.00000900
 H                 -2.20623300    1.14781900   -0.00002100
 H                 -2.09721500   -1.33664700    0.00001700

benzene.wfn


