%mem=1600MB
%nprocshared=4
# b3lyp/6-311+g(2d,p) geom=connectivity

Title Card Required

0 1
 C                  1.12552600    0.81883300    0.00000000
 C                 -0.14638400    1.38414700    0.00000100
 C                 -1.27189300    0.56531900    0.00000200
 C                 -1.12551600   -0.81884700    0.00000000
 C                  0.14636600   -1.38414800   -0.00000200
 C                  1.27190000   -0.56530200   -0.00000100
 H                  2.00188000    1.45642800   -0.00000100
 H                 -0.26033600    2.46189500    0.00000200
 H                 -2.26224400    1.00546700    0.00000300
 H                 -2.00189600   -1.45640600    0.00000100
 H                  0.26036300   -2.46189200   -0.00000300
 H                  2.26223300   -1.00549200   -0.00000200

 1 2 1.5 6 1.5 7 1.0
 2 3 1.5 8 1.0
 3 4 1.5 9 1.0
 4 5 1.5 10 1.0
 5 6 1.5 11 1.0
 6 12 1.0
 7
 8
 9
 10
 11
 12

