%mem=1600MB
%nprocshared=4
# b3lyp/6-311+g(2d,p) geom=connectivity

Title Card Required

0 1
 O                 -1.31672000   -0.66727700   -0.00006600
 C                 -1.60848500    0.50060200   -0.00015100
 C                  1.42609600   -0.51272400    0.00005600
 H                  1.37659200   -1.09572400   -0.93715800
 H                  1.37640900   -1.09593700    0.93712500
 O                  1.54663500    0.68581900    0.00020200
 H                 -0.83339000    1.28824800   -0.00012300
 H                 -2.66459300    0.82780500   -0.00036300

 1 2 2.0
 2 7 1.0 8 1.0
 3 4 1.0 5 1.0 6 2.0
 4
 5
 6
 7
 8

