%NProcShared=16
%mem=24GB
%chk=A-T_opt.chk
# opt freq B3LYP/6-311+G(2d,p) scf=xqc geom=connectivity

Optimization of Adenine-Thymine

0 1
 N                 -3.49589410    2.69450467    3.02166548
 C                 -4.61417666    2.95526646    2.27443997
 H                 -5.56716916    3.10064650    2.76133995
 N                 -4.38332692    3.06257113    0.99960919
 C                 -3.01289258    2.85888031    0.88771530
 C                 -2.14671083    2.84617161   -0.21208863
 N                 -2.54974119    3.05200012   -1.47335832
 H                 -1.87853009    3.03112020   -2.22777059
 H                 -3.52473059    3.22802028   -1.66960554
 N                 -0.84876278    2.61433896    0.02704250
 C                 -0.45463924    2.41075169    1.28088411
 H                  0.58684333    2.22214485    1.49568819
 N                 -1.17202104    2.39905173    2.38886662
 C                 -2.47372375    2.63486576    2.11967736
 N                  3.32046384    2.35353894   -2.56283138
 C                  2.88009988    2.64201624   -3.82764849
 H                  3.56977728    2.61699741   -4.65838331
 C                  1.58893055    2.90588587   -4.07024353
 C                  1.09678919    3.22282833   -5.45130967
 H                  1.30547775    2.38268786   -6.11366456
 H                  0.02228369    3.40361882   -5.42210529
 H                  1.60447576    4.11281682   -5.82316315
 C                  0.62136030    2.89403519   -3.00381643
 O                 -0.58045039    3.12303809   -3.13074244
 N                  1.15203318    2.59442812   -1.76566321
 H                  0.45748615    2.57344610   -0.92586436
 C                  2.47483037    2.31874890   -1.48529096
 O                  2.85046612    2.06369670   -0.35292762
 H                 -3.56721633    2.39999511    3.99221945
 H                  4.32707532    2.19300771   -2.62008838

 1 2 1.5 14 1.5 29 1.0
 2 3 1.0 4 2.0
 3
 4 5 1.0
 5 6 1.5 14 2.0
 6 7 1.5 10 1.5
 7 8 1.0 9 1.0
 8
 9
 10 11 1.5
 11 12 1.0 13 2.0
 12
 13 14 1.5
 14
 15 16 1.5 27 1.5 30 1.0
 16 17 1.0 18 2.0
 17
 18 19 1.0 23 1.5
 19 20 1.0 21 1.0 22 1.0
 20
 21
 22
 23 24 2.0 25 1.5
 24
 25 26 1.0 27 1.5
 26
 27 28 2.0
 28
 29
 30

