%chk=C:\Users\alakhani\Dropbox\Collaboration\NCIproject\DNA Fragment\G-C_optTD.chk
# hf/3-21g geom=connectivity

Title Card Required

0 1
 N                 -0.77555818    1.15746179    0.00000000
 C                 -0.47829718   -0.19512521    0.00442600
 H                  0.54096082   -0.54981221    0.01179300
 N                 -1.54201618   -0.94439621   -0.00120600
 C                 -2.60052318   -0.05338321   -0.00995200
 C                 -4.01067618   -0.26654121   -0.01766800
 O                 -4.63420918   -1.33312621   -0.01830600
 N                 -4.71302118    0.95093279   -0.02464000
 H                 -5.74074518    0.86646179   -0.02579700
 C                 -4.15187718    2.20168279   -0.02505700
 N                 -5.00207118    3.24811179   -0.04014300
 H                 -6.01583918    3.13601479   -0.01930300
 H                 -4.59536118    4.16677879   -0.01615400
 N                 -2.84751618    2.40756679   -0.01625900
 C                 -2.14045718    1.26287179   -0.00935500
 N                 -9.78483818    1.59423779    0.00263000
 C                -10.38722118    0.37794379   -0.00221800
 H                -11.46936218    0.37231379    0.00222400
 C                 -9.64546418   -0.75040821   -0.01182400
 H                -10.10901618   -1.72570521   -0.01544500
 C                 -8.21440418   -0.59379721   -0.01666100
 N                 -7.41445018   -1.66139221   -0.02550600
 H                 -6.38547618   -1.54852921   -0.02461600
 H                 -7.80890018   -2.58636721   -0.02683500
 N                 -7.64200918    0.61193079   -0.01273900
 C                 -8.38703718    1.74306279   -0.00226300
 O                 -7.91869818    2.88132579    0.00325900
 H                 -0.12848318    1.92966879    0.00240300
 H                -10.31989318    2.44985879    0.00991800

 1 2 1.0 15 1.5 28 1.0
 2 3 1.0 4 2.0
 3
 4 5 1.0
 5 6 1.5 15 1.5
 6 7 2.0 8 1.0
 7
 8 9 1.0 10 1.5
 9
 10 11 1.5 14 2.0
 11 12 1.0 13 1.0
 12
 13
 14 15 1.5
 15
 16 17 1.5 26 1.0 29 1.0
 17 18 1.0 19 2.0
 18
 19 20 1.0 21 1.5
 20
 21 22 1.5 25 1.5
 22 23 1.0 24 1.0
 23
 24
 25 26 1.5
 26 27 2.0
 27
 28
 29

