%NProcShared=16
%mem=24GB
%chk=G-C_opt.chk
# opt freq B3LYP/6-311+G(2d,p) scf=xqc geom=connectivity

Optimization of Guanine-Cytosine

0 1
 N                 -1.40595660    2.05363030   -1.68993242
 C                 -2.38036378    2.45163104   -2.54290493
 H                 -3.32942922    2.84237601   -2.24042676
 N                 -2.00426689    2.29370781   -3.78810287
 C                 -0.65566118    1.73994887   -3.67350435
 C                  0.20508235    1.38368139   -4.63452216
 O                 -0.07618251    1.49589276   -5.85594316
 N                  1.49802271    0.85372014   -4.17929623
 H                  2.18967377    0.56773912   -4.84249587
 C                  1.74108140    0.75749389   -2.85111306
 N                  2.91453346    0.27654710   -2.42550586
 H                  3.60721761   -0.00985437   -3.08744442
 H                  3.09906605    0.20341738   -1.44540399
 N                  0.80783772    1.14338514   -1.94937552
 C                 -0.35975092    1.62187598   -2.39331698
 N                  5.40971263   -0.61953014   -6.37056890
 C                  5.24769094   -0.58045162   -7.69490655
 H                  6.03888667   -0.89785934   -8.34156075
 C                  4.07750551   -0.13735300   -8.21910807
 H                  3.94919767   -0.10664039   -9.28094320
 C                  3.03227486    0.28173642   -7.37771329
 N                  1.92309068    0.70138707   -7.89443832
 H                  1.17642047    1.00063948   -7.30035787
 H                  1.81232021    0.72653774   -8.88796603
 N                  3.17387289    0.25070352   -6.04490087
 C                  4.31522695   -0.18088215   -5.50000544
 O                  4.44925186   -0.21044724   -4.24911224
 H                 -1.49971814    2.15452768   -0.66645856
 H                  6.21498472   -1.02858266   -6.00461950

 1 2 1.5 15 1.5 28 1.0
 2 3 1.0 4 2.0
 3
 4 5 1.0
 5 6 2.0 15 2.0
 6 7 2.0 8 1.0
 7
 8 9 1.0 10 1.5
 9
 10 11 1.5 14 1.5
 11 12 1.0 13 1.0
 12
 13
 14 15 1.5
 15
 16 17 1.5 26 1.0 29 1.0
 17 18 1.0 19 2.0
 18
 19 20 1.0 21 1.5
 20
 21 22 2.0 25 1.5
 22 23 1.0 24 1.0
 23
 24
 25 26 1.5
 26 27 2.0
 27
 28
 29

