%mem=1600MB
%nprocshared=4
# b3lyp/6-311+g(2d,p) geom=connectivity

Title Card Required

0 1
 O                  1.33192700    0.91014000    0.09330800
 H                  1.22584700   -0.05900300    0.01930500
 H                  1.98076100    1.16422000   -0.57014700
 O                  0.12777100   -1.60193500   -0.11050100
 H                 -0.66413000   -1.03121200   -0.05560700
 H                  0.04769000   -2.24212100    0.60383400
 O                 -1.46189200    0.68581800    0.08554400
 H                 -0.58114900    1.10724700    0.05343800
 H                 -1.99146900    1.10868500   -0.59762800

 1 2 1.0 3 1.0
 2
 3
 4 5 1.0 6 1.0
 5
 6
 7 8 1.0 9 1.0
 8
 9

