%mem=1600MB
%nprocshared=4
# b3lyp/6-311+g(2d,p) geom=connectivity

Title Card Required

0 1
 Cl                -1.11744700    2.46105800   -0.00002300
 Cl                 2.69013200   -0.26282000   -0.00002500
 Cl                -1.57269700   -2.19826400    0.00001500
 Na                 0.95451100   -2.10232900    0.00006000
 Na                -2.29790200    0.22458100   -0.00000600
 Na                 1.34341000    1.87778900   -0.00000300

 1 5 1.0 6 1.0
 2 4 1.0 6 1.0
 3 4 1.0 5 1.0
 4
 5
 6

