%mem=1600mb
%NProcShared=4
%chk=acetone-formaldehyde.chk
# opt freq B3LYP/6-311+G(2d,p) scf=xqc out=wfn geom=connectivity 

Title Card Required

0 1
 O                 -0.17715000   -0.95302100    0.10057000
 C                 -1.00954700   -0.06677100    0.03113700
 C                 -0.63890200    1.38027400    0.07543100
 H                  0.43541200    1.53161500   -0.16013700
 H                 -1.21594700    1.99708700   -0.62239600
 H                 -0.78452600    1.79974200    1.08112500
 C                 -2.46996700   -0.38470700   -0.09945300
 H                 -3.08831100    0.19497900    0.59712800
 H                 -2.83417300   -0.16616800   -1.11334000
 H                 -2.66675600   -1.45164800    0.08703800
 C                  2.16371900   -0.63732400    0.02562900
 H                  2.03136800   -1.31949500   -0.82172100
 H                  2.08689900   -1.08127900    1.02435400
 O                  2.39767700    0.54631300   -0.13413400

 1 2 2.0
 2 3 1.0 7 1.0
 3 4 1.0 5 1.0 6 1.0
 4
 5
 6
 7 8 1.0 9 1.0 10 1.0
 8
 9
 10
 11 12 1.0 13 1.0 14 2.0
 12
 13
 14

acetone-formaldehyde.wfn


