%mem=1600MB
%nprocshared=4
# b3lyp/6-311+g(2d,p) geom=connectivity

Title Card Required

0 1
 C                 -0.47316500    0.94037600   -0.01045300
 C                 -1.86387200    0.97569000   -0.00303300
 C                 -2.58812200   -0.20736500    0.00990700
 C                 -1.92516300   -1.43133100    0.01129600
 C                 -0.54030000   -1.45573800    0.00302200
 C                  0.21707100   -0.27976600   -0.00458800
 H                 -2.37571900    1.93279700   -0.01108100
 H                 -3.67072300   -0.16958500    0.01642500
 H                 -2.48555200   -2.35729000    0.01930900
 H                  0.00389800   -2.39093700    0.00486900
 C                  1.71475700   -0.44116500   -0.00130200
 O                  2.23503800   -1.52663800   -0.03105900
 O                  2.47287000    0.67102800    0.04345800
 H                  1.91535100    1.46727600    0.05951300
 O                  0.25363500    2.11045600   -0.03393300
 H                 -0.32683200    2.87476200    0.05414700

 1 2 1.5 6 1.5 15 1.0
 2 3 1.5 7 1.0
 3 4 1.5 8 1.0
 4 5 2.0 9 1.0
 5 6 1.5 10 1.0
 6 11 1.0
 7
 8
 9
 10
 11 12 2.0 13 1.0
 12
 13 14 1.0
 14
 15 16 1.0
 16

