%mem=1600mb
%NProcShared=4
%chk=acid-2-new.chk
# opt freq B3LYP/6-311+G(2d,p) scf=xqc out=wfn geom=connectivity 

Title Card Required

0 1
 C                  0.41448900    0.91914600    0.00536400
 C                  1.80152500    1.06948600    0.00477000
 C                  2.62514100   -0.05604800   -0.00248700
 C                  2.06177100   -1.33268500   -0.00795700
 C                  0.67506000   -1.48291400   -0.00688400
 C                 -0.14866800   -0.35692900   -0.00062000
 H                  2.24519500    2.07565800    0.00871200
 H                  3.71842600    0.06237500   -0.00359000
 H                  2.71136500   -2.21998100   -0.01362000
 H                  0.23075500   -2.48892000   -0.01118700
 C                 -1.67967300   -0.52313200    0.00028500
 O                 -2.19215200   -1.67218700    0.02495300
 O                 -2.52184800    0.63224500   -0.02699700
 H                 -1.97882500    1.42373100   -0.04364100
 N                 -0.45335100    2.10561300    0.01241300
 H                 -0.27429600    2.64468300    0.83542100
 H                 -0.26503000    2.66116300   -0.79746300

 1 2 1.5 6 1.5 15 1.0
 2 3 1.5 7 1.0
 3 4 1.5 8 1.0
 4 5 1.5 9 1.0
 5 6 1.5 10 1.0
 6 11 1.0
 7
 8
 9
 10
 11 12 2.0 13 1.0
 12
 13 14 1.0
 14
 15 16 1.0 17 1.0
 16
 17

acid-2-new.wfn


