%mem=1600MB
%nprocshared=4
%chk=NH3-3-molecules_1.chk
# opt freq b3lyp/6-311+g(2d,p) geom=connectivity out=wfn scf=xqc

Title Card Required

0 1
 H                 -0.38226171    1.22233200   -0.43450995
 H                 -2.26091700   -1.10544700   -0.76208700
 H                  1.56338400   -0.34600000    0.78390900
 N                  1.58305600   -1.00493500    0.01838100
 H                  1.53766900   -0.45519500   -0.82800400
 H                  2.48568600   -1.45084100    0.03420200
 N                  0.24493400    1.89739700   -0.04603500
 H                 -0.11441641    2.67520322    0.46960515
 N                 -1.76131700   -0.67970600    0.00174000
 H                 -2.25201000   -0.91787700    0.84820200
 H                 -0.85141900   -1.12614600    0.04867500
 H                  1.23148012    1.79465578   -0.17320020

 1 7 1.0
 2 9 1.0
 3 4 1.0
 4 5 1.0 6 1.0
 5
 6
 7 8 1.0 12 1.0
 8
 9 10 1.0 11 1.0
 10
 11
 12

NH3-3-molecules.wfn



