%mem=1600MB
%nprocshared=4
# b3lyp/6-311+g(2d,p) geom=connectivity

Title Card Required

0 1
 C                  0.45846400    0.94546200    0.06636900
 C                  1.85031400    0.98567200   -0.00333800
 C                  2.59126300   -0.18585400   -0.07770300
 C                  1.94699500   -1.41906200   -0.05975600
 C                  0.56329900   -1.46496000    0.00529200
 C                 -0.20110900   -0.29569600    0.04522400
 H                  2.35396500    1.94627100    0.01374000
 H                  3.67194000   -0.13353700   -0.13507900
 H                  2.51976700   -2.33682600   -0.10433000
 H                  0.03403500   -2.40876300    0.00669500
 C                 -1.69867600   -0.47104400    0.00103800
 O                 -2.22611700   -1.53130700    0.22187000
 O                 -2.43174100    0.60358600   -0.34226300
 H                 -1.83939300    1.38093400   -0.45992100
 N                 -0.30082800    2.15951500    0.12323200
 H                 -0.69394000    2.32458200    1.04597700
 H                  0.25898400    2.96539700   -0.12931200

 1 2 1.5 6 1.5 15 1.0
 2 3 1.5 7 1.0
 3 4 1.5 8 1.0
 4 5 2.0 9 1.0
 5 6 1.5 10 1.0
 6 11 1.0
 7
 8
 9
 10
 11 12 2.0 13 1.0
 12
 13 14 1.0
 14
 15 16 1.0 17 1.0
 16
 17

