%mem=1600mb
%NProcShared=4
%chk=water-3-molecules.chk
# opt freq B3LYP/6-311+G(2d,p) scf=xqc geom=connectivity out=wfn 

Title Card Required

0 1
 O                  0.92611900   -1.01393800    0.03407700
 H                 -0.04578600   -1.18832400   -0.05759200
 H                  1.37870500   -1.83354200   -0.10020800
 O                 -1.49804700   -0.23289500   -0.09212400
 H                 -1.02787400    0.63946900   -0.21399900
 H                 -1.96883000   -0.16514300    0.73117700
 O                  0.54514400    1.34306400    0.00526200
 H                  0.88435800    0.88737000    0.79434400
 H                  0.99370000    0.89032400   -0.73144500

 1 2 1.0 3 1.0
 2
 3
 4 5 1.0 6 1.0
 5
 6
 7 8 1.0 9 1.0
 8
 9

water-3-molecules.wfn


