%mem=1600MB
%nprocshared=4
# b3lyp/6-311+g(2d,p) geom=connectivity

Title Card Required

0 1
 C                 -1.14076000   -0.71964800   -0.00021700
 C                 -1.19430100    0.67044900   -0.00012300
 C                  0.00015000    1.37978800    0.00009700
 C                  1.19444700    0.67020300    0.00021200
 C                  1.14060500   -0.71988100    0.00012200
 N                 -0.00015300   -1.41390900   -0.00009200
 H                  0.00023600    2.46350700    0.00017400
 H                 -2.05572700   -1.30435300   -0.00037300
 H                 -2.15040600    1.17900900   -0.00024500
 H                  2.15068000    1.17852300    0.00034600
 H                  2.05544100   -1.30478700    0.00018400

 1 2 1.5 6 1.5 8 1.0
 2 3 1.5 9 1.0
 3 4 1.5 7 1.0
 4 5 1.5 10 1.0
 5 6 1.5 11 1.0
 6
 7
 8
 9
 10
 11

