%mem=1600MB
%nprocshared=4
# b3lyp/6-311+g(2d,p) geom=connectivity

Title Card Required

0 1
 H                  1.37830600   -0.01939400    0.00120400
 H                  0.04790500    2.43850700   -0.81544400
 H                 -0.70687400   -1.18571900   -0.00014100
 N                 -1.65762500   -0.80721200   -0.00020000
 H                 -2.13735300   -1.17954500   -0.81417200
 H                 -2.13595800   -1.17648200    0.81600000
 N                  1.52823500   -1.03164500    0.00011500
 H                  2.09007600   -1.26074700    0.81443700
 N                  0.12964200    1.83879100    0.00003300
 H                  0.04633400    2.43938200    0.81470500
 H                 -0.67265000    1.20355300   -0.00041400
 H                  2.08845300   -1.25909200   -0.81580800

 1 7 1.0
 2 9 1.0
 3 4 1.0
 4 5 1.0 6 1.0
 5
 6
 7 8 1.0 12 1.0
 8
 9 10 1.0 11 1.0
 10
 11
 12

