%mem=1600MB
%nprocshared=4
# b3lyp/6-311+g(2d,p) geom=connectivity

Title Card Required

0 1
 O                 -0.34578700   -0.93585100    0.05486800
 C                 -1.19657900   -0.07110600    0.01537200
 C                 -0.84245000    1.39875600    0.03503300
 H                  0.23575500    1.53457400   -0.01309600
 H                 -1.32317100    1.91851700   -0.79827100
 H                 -1.22604100    1.85376500    0.95356100
 C                 -2.66730000   -0.42005600   -0.05496500
 H                 -3.22136500    0.08992500    0.73777300
 H                 -3.08289800   -0.07268800   -1.00573800
 H                 -2.80287600   -1.49652900    0.02861100
 C                  2.48573800   -0.61225200    0.01418800
 H                  2.29584000   -1.22884700   -0.88263400
 H                  2.31841300   -1.11011400    0.98610900
 O                  2.86202300    0.52826800   -0.06287800

 1 2 2.0
 2 3 1.0 7 1.0
 3 4 1.0 5 1.0 6 1.0
 4
 5
 6
 7 8 1.0 9 1.0 10 1.0
 8
 9
 10
 11 12 1.0 13 1.0 14 2.0
 12
 13
 14

