%mem=1600MB
%nprocshared=4
# b3lyp/6-311+g(2d,p) geom=connectivity

Title Card Required

0 1
 Na                 2.01640200   -0.00911100   -0.00001700
 Na                -1.00025500    1.75059100    0.00000500
 Na                -1.01604800   -1.74146400    0.00001300
 F                  1.06328600    1.82261400   -0.00001400
 F                 -2.11024200    0.00949200    0.00001700
 F                  1.04683400   -1.83212600   -0.00000500

 1 4 1.0 6 1.0
 2 4 1.0 5 1.0
 3 5 1.0 6 1.0
 4
 5
 6

