%mem=3200mb
%NProcShared=8
%chk=Pyridine.chk
# opt freq B3LYP/6-311+G(2d,p) scf=xqc out=wfn geom=connectivity

Title Card Required

0 1
 C                 -3.37707099    0.17417119    0.00000000
 C                 -1.97019299    0.17417119    0.00000000
 C                 -1.30350199    1.40077819    0.00000000
 C                 -2.05757499    2.57556519   -0.00024100
 C                 -3.46077699    2.47276019   -0.00038200
 N                 -4.12030699    1.29780919   -0.00019700
 H                 -0.20495799    1.44055419   -0.00095000
 H                 -3.94261799   -0.77464981    0.00012200
 H                 -1.41546099   -0.77272981    0.00026400
 H                 -1.57353899    3.56048919   -0.00034200
 H                 -4.09412599    3.37782319   -0.00046300

 1 2 1.5 6 1.5 8 1.0
 2 3 1.5 9 1.0
 3 4 1.5 7 1.0
 4 5 1.5 10 1.0
 5 6 1.5 11 1.0
 6
 7
 8
 9
 10
 11

Pyridine.wfn

