%mem=1600mb
%NProcShared=4
%chk=acid-1-new.chk
# opt freq B3LYP/6-311+G(2d,p) scf=xqc out=wfn geom=connectivity 

Title Card Required

0 1
 C                 -0.42068800    0.92219800   -0.00799700
 C                 -1.80949200    1.05522300   -0.00758500
 C                 -2.61900200   -0.08048400    0.00164000
 C                 -2.03974900   -1.34998200    0.00926000
 C                 -0.65127200   -1.48290100    0.00836900
 C                  0.15834500   -0.34674000    0.00013600
 H                 -2.26568000    2.05577400   -0.01322200
 H                 -3.71367900    0.02429200    0.00259900
 H                 -2.67822200   -2.24530200    0.01647400
 H                 -0.19445000   -2.48327700    0.01436600
 C                  1.69130400   -0.49383100   -0.00056800
 O                  2.21807800   -1.63644300   -0.02330000
 O                  2.51900000    0.67200800    0.02469500
 H                  1.96614600    1.45668500    0.04001600
 O                  0.40907200    2.08680900   -0.01687200
 H                 -0.13998000    2.87194000    0.04404900

 1 2 1.5 6 1.5 15 1.0
 2 3 1.5 7 1.0
 3 4 1.5 8 1.0
 4 5 1.5 9 1.0
 5 6 1.5 10 1.0
 6 11 1.0
 7
 8
 9
 10
 11 12 2.0 13 1.0
 12
 13 14 1.0
 14
 15 16 1.0
 16

acid-1-new.wfn


